c FILE /home/rafael/Documents/HappySet/MIHS/inputs/happygen/output/graph_d_regular_k10_p0.3_v100_20241127_084116.txt
c SOURCE This is a d-regular graph formed for the happy graph colouring problem.
c DESCRIPTION It was generated using the problem generator of Rhyd Lewis
c
c GRAPH STATS
c Seed                             = -1583971847
c Number of Nodes                  = 100
c Number of colours k              = 10
c Number of pre-assignments        = 30
c Degree of all vertices           = 6
c Density                          = 0.0606061
c 
c The degrees of nodes 1 to 100, respectively, are as follows 
c [6, 6, 6, 6, 6, 6, 6, 6, 6, 6, 6, 6, 6, 6, 6, 6, 6, 6, 6, 6, 6, 6, 6, 6, 6, 6, 
c  6, 6, 6, 6, 6, 6, 6, 6, 6, 6, 6, 6, 6, 6, 6, 6, 6, 6, 6, 6, 6, 6, 6, 6, 6, 
c  6, 6, 6, 6, 6, 6, 6, 6, 6, 6, 6, 6, 6, 6, 6, 6, 6, 6, 6, 6, 6, 6, 6, 6, 6, 
c  6, 6, 6, 6, 6, 6, 6, 6, 6, 6, 6, 6, 6, 6, 6, 6, 6, 6, 6, 6, 6, 6, 6, 6] 
c  
p edge 100 300 10
e 1 3
e 1 18
e 1 40
e 1 50
e 1 65
e 1 90
e 2 20
e 2 33
e 2 64
e 2 66
e 2 72
e 2 87
e 3 31
e 3 49
e 3 51
e 3 55
e 3 73
e 4 14
e 4 17
e 4 28
e 4 75
e 4 86
e 4 89
e 5 8
e 5 23
e 5 27
e 5 31
e 5 62
e 5 99
e 6 9
e 6 32
e 6 43
e 6 75
e 6 79
e 6 95
e 7 35
e 7 55
e 7 63
e 7 72
e 7 73
e 7 95
e 8 33
e 8 48
e 8 50
e 8 75
e 8 79
e 9 20
e 9 49
e 9 84
e 9 86
e 9 87
e 10 15
e 10 18
e 10 22
e 10 30
e 10 32
e 10 58
e 11 14
e 11 16
e 11 29
e 11 41
e 11 43
e 11 71
e 12 36
e 12 39
e 12 46
e 12 83
e 12 84
e 12 94
e 13 16
e 13 31
e 13 36
e 13 41
e 13 55
e 13 62
e 14 29
e 14 33
e 14 76
e 14 90
e 15 21
e 15 34
e 15 54
e 15 58
e 15 81
e 16 24
e 16 38
e 16 59
e 16 85
e 17 26
e 17 29
e 17 38
e 17 85
e 17 93
e 18 49
e 18 88
e 18 97
e 18 98
e 19 27
e 19 31
e 19 34
e 19 42
e 19 61
e 19 66
e 20 37
e 20 54
e 20 94
e 20 96
e 21 46
e 21 68
e 21 73
e 21 83
e 21 90
e 22 60
e 22 67
e 22 68
e 22 69
e 22 93
e 23 52
e 23 53
e 23 64
e 23 71
e 23 84
e 24 30
e 24 33
e 24 41
e 24 61
e 24 67
e 25 53
e 25 57
e 25 76
e 25 85
e 25 89
e 25 96
e 26 41
e 26 47
e 26 71
e 26 76
e 26 95
e 27 53
e 27 63
e 27 70
e 27 86
e 28 43
e 28 56
e 28 60
e 28 80
e 28 99
e 29 64
e 29 97
e 29 100
e 30 47
e 30 69
e 30 72
e 30 80
e 31 55
e 31 99
e 32 41
e 32 42
e 32 82
e 32 98
e 33 81
e 33 88
e 34 47
e 34 57
e 34 65
e 34 77
e 35 56
e 35 76
e 35 78
e 35 82
e 35 100
e 36 47
e 36 48
e 36 71
e 36 72
e 37 38
e 37 62
e 37 65
e 37 80
e 37 86
e 38 63
e 38 67
e 38 92
e 39 42
e 39 44
e 39 69
e 39 70
e 39 89
e 40 54
e 40 72
e 40 88
e 40 91
e 40 93
e 41 50
e 42 70
e 42 73
e 42 74
e 43 56
e 43 57
e 43 94
e 44 48
e 44 61
e 44 64
e 44 69
e 44 97
e 45 51
e 45 54
e 45 71
e 45 76
e 45 82
e 45 100
e 46 47
e 46 68
e 46 70
e 46 87
e 47 78
e 48 53
e 48 67
e 48 73
e 49 58
e 49 59
e 49 83
e 50 53
e 50 81
e 50 100
e 51 76
e 51 84
e 51 96
e 51 99
e 52 55
e 52 58
e 52 75
e 52 84
e 52 93
e 53 67
e 54 60
e 54 86
e 55 56
e 56 74
e 56 93
e 57 65
e 57 74
e 57 97
e 58 60
e 58 96
e 59 61
e 59 91
e 59 93
e 59 98
e 60 77
e 60 89
e 61 62
e 61 83
e 62 66
e 62 96
e 63 64
e 63 79
e 63 98
e 64 74
e 65 91
e 65 97
e 66 68
e 66 81
e 66 85
e 67 81
e 68 80
e 68 83
e 69 73
e 69 92
e 70 82
e 70 91
e 71 75
e 72 86
e 74 75
e 74 89
e 77 79
e 77 85
e 77 91
e 77 95
e 78 81
e 78 88
e 78 94
e 78 99
e 79 84
e 79 100
e 80 90
e 80 94
e 82 87
e 82 92
e 83 88
e 85 98
e 87 92
e 87 95
e 88 96
e 89 92
e 90 97
e 90 98
e 91 92
e 94 99
e 95 100
n 2 7
n 3 2
n 5 3
n 12 6
n 16 4
n 17 2
n 21 1
n 25 5
n 27 3
n 30 8
n 32 8
n 33 7
n 37 10
n 41 8
n 42 8
n 43 9
n 44 1
n 45 3
n 47 8
n 48 1
n 54 3
n 55 2
n 59 4
n 63 3
n 77 4
n 81 7
n 84 6
n 91 4
n 96 5
n 97 1
